(set-logic QF_FP)
(set-option :produce-models true)
(set-info :source |Random FP created by PyMPF|)
(set-info :category random)
(set-info :status sat)
(declare-const x Float32)
(assert (= x ((_ to_fp 8 24) #x5602147A)))
(declare-const y Float32)
(assert (= y ((_ to_fp 8 24) #x0708FFC5)))
(declare-const z Float32)
(assert (= z (fp #b1 #b00000000 #b11011011010100111111110)))
(declare-const result Float32)
(assert (= result (fp.fma RTZ x y z)))
(assert (= result (fp #b0 #b00111011 #b00010110011100110101110)))
(check-sat)
(exit)
